756885
747991
746073
746073
744539
744539
742553
742553
731320
725903
725903
725903
725903
725138
721160
714497
705109
705109
705109
701706
693555
693555
693555
692542
676591
676591
676591
676591
669849
669849
668224
661495
657118
657118
657118
657118
657118
653131
648974
648974
648974
648974
646903
646474
645663
645238
640415
640415
638014
633901
631924
631924
631924
630024
630024
621877
621877
621877
621877
621877
617233
617233
604773
604773
604773
604773
604773
604773
604773
604773
603542
601741
601741
601741
597229
597229
592342
592342
592342
592342
592342
592342
590728
590056
590056
588455
587772
583966
583966
583966
583284
580543
580543
580543
570702
570702
570702
570702
570019
570019
